33512.48 0
6 170 60 111 73 197 128 194 100 189 45 145 124 108 133 68 183 106 156 193 79 75 126 160 134 71 56 30 98 77 173 64 159 85 95 157 151 15 76 42 154 149 58 17 84 63 142 188 186 13 67 32 44 165 103 105 182 81 113 24 19 141 8 9 20 181 163 132 46 114 11 27 150 55 94 147 130 162 25 86 112 54 101 177 116 91 140 47 1 118 50 191 99 143 29 34 61 36 195 18 135 144 117 115 5 39 82 2 176 4 123 52 59 43 92 3 121 122 70 187 72 38 90 53 62 153 14 171 136 83 40 146 78 180 12 178 87 164 23 26 179 119 137 51 65 7 120 22 41 184 21 172 152 69 48 169 97 138 93 168 174 129 80 33 37 185 148 0 49 125 199 155 161 31 104 96 166 139 16 89 88 10 167 109 102 110 192 57 127 28 190 196 175 198 107 35 158 74 66 131